proyfinal/src/viki/013/experimentInOfficeAgust.take6.output/8f9ef690-9f05-4f57-bd89-2d8a1eec039d.als.out
Reading from standard input... Use '--help' for help.
============================[ Problem Statistics ]=============================
|                                                                             |
|  Number of variables:         87638                                         |
|  Number of clauses:          161767                                         |
|  Parse time:                   0.04 s                                       |
|                                                                             |
============================[ Search Statistics ]==============================
| Conflicts |          ORIGINAL         |          LEARNT          | Progress |
|           |    Vars  Clauses Literals |    Limit  Clauses Lit/Cl |          |
===============================================================================
|       100 |   65201   115421   287900 |    42321      100     18 | 25.602 % |
|       250 |   58961    96193   240519 |    46553      246     37 | 32.722 % |
|       475 |   58936    96089   240281 |    51208      470     46 | 32.751 % |
|       812 |   58936    96089   240281 |    56329      807     52 | 32.751 % |
|      1318 |   58824    95692   239323 |    61962     1308     57 | 32.878 % |
|      2077 |   58770    95429   238720 |    68158     2062     50 | 32.940 % |
|      3216 |   58746    95329   238491 |    74974     3200     84 | 32.967 % |
|      4924 |   58529    94625   236624 |    82471     4899     79 | 33.215 % |
|      7486 |   55931    85637   214241 |    90718     5314     73 | 36.180 % |
|     11330 |   55837    85380   213624 |    99790     9107     70 | 36.287 % |
|     17096 |   55182    83066   208119 |   109769    13855     64 | 37.034 % |
===============================================================================
restarts              : 73
conflicts             : 20672          (9082 /sec)
decisions             : 83621          (0.00 % random) (36737 /sec)
propagations          : 25494428       (11200528 /sec)
conflict literals     : 1348996        (41.16 % deleted)
Memory used           : 35.31 MB
CPU time              : 2.27618 s

UNSATISFIABLE
